256221
33,12,25,69,8,44,24,77,81,74,56,17,38,11,35,57,60,55,23,47,58,40,16,6,51,3,15,34,49,72,42,61,4,50,63,39,75,53,30,83,79,19,22,41,27,32,66,76,36,70,13,37,18,31,48,54,45,73,1,10,64,29,46,20,7,82,9,14,62,26,67,80,71,21,65,52,78,2,68,43,59,5,28